1027795
39 18 13572
18 3 26533
3 21 23621
21 23 45980
23 26 90957
26 17 12606
17 1 16361
1 34 10541
34 10 5412
10 9 5506
9 20 5744
20 0 6578
0 6 18909
6 35 11794
35 28 16895
28 37 745
37 22 7449
22 24 11530
24 38 4093
38 29 6375
29 36 941
36 25 14546
25 32 15458
32 11 3967
11 19 42433
19 31 24202
31 4 3290
4 30 46426
30 27 12751
27 12 6411
12 33 51635
33 5 56284
5 8 47658
8 7 54349
7 14 26227
14 15 36816
15 16 43849
16 13 42391
13 2 30026
2 39 144508
